NAME : Instance 32
COMMENT : Comment 32
TYPE : TSP
DIMENSION: 30
EDGE_WEIGHT_TYPE : EUC_2D
NODE_COORD_SECTION
  1 895 1771
  2 369 61
  3 33 411
  4 746 345
  5 240 440
  6 255 1536
  7 1782 248
  8 250 1368
  9 856 1320
  10 1018 1981
  11 484 1294
  12 1347 1918
  13 1747 813
  14 268 87
  15 1328 920
  16 688 913
  17 618 1451
  18 1926 552
  19 340 131
  20 802 1185
  21 996 87
  22 1479 1205
  23 133 1736
  24 943 812
  25 945 1029
  26 249 1113
  27 684 1203
  28 772 1539
  29 1887 1955
  30 1 1279
EOF
